SYSTEM     = DJ
ISTART     = 0
NWRITE     = 2   
PREC       = Accurate
SYMPREC = 1E-4
ENCUT      = 400
GGA        = PE
ADDGRID    = .TRUE.
NSW        = 1000
ISIF       = 3
ISYM       = 2
IBRION     = 2
NELM       = 80 
EDIFF      = 1E-05
EDIFFG     = -0.01
ALGO       = Normal
LDIAG      = .TRUE.
LREAL      = Auto
ISMEAR     = 0
SIMGA      = 0.05
LORBIT     = 11
ICHARG     = 2
LWAVE      = .FALSE.
LCHARG     = .FALSE.
ICORELEVEL = 1
NCORE      = 4
