LaTaO4_2L_primitive
1.0
        7.5693001747         0.0000000000         0.0000000000
        0.0000000000         8.0034999847         0.0000000000
        0.0000000000         0.0000000000        40.0000000000
   A_ele   B_ele   C_ele
    8    8   32
Direct
     0.746249974         0.374080002         0.323020011
     0.253740013         0.874080002         0.491100013
     0.753740013         0.625919998         0.509959996
     0.246250004         0.125919998         0.678030014
     0.253740013         0.625919998         0.678030014
     0.746249974         0.125919998         0.509959996
     0.246250004         0.374080002         0.491100013
     0.753740013         0.874080002         0.323020011
     0.996100008         0.120540000         0.407530010
     0.003900000         0.620540023         0.406580001
     0.503899992         0.879459977         0.594470024
     0.496100008         0.379460007         0.593519986
     0.003900000         0.879459977         0.593519986
     0.996100008         0.379460007         0.594470024
     0.496100008         0.120540000         0.406580001
     0.503899992         0.620540023         0.407530010
     0.746429980         0.132909998         0.428930014
     0.253569990         0.632910013         0.385179996
     0.753570020         0.867089987         0.615869999
     0.246429995         0.367089987         0.572120011
     0.253569990         0.867089987         0.572120011
     0.746429980         0.367089987         0.615869999
     0.246429995         0.132909998         0.385179996
     0.753570020         0.632910013         0.428930014
     0.066330001         0.125850007         0.471029997
     0.933659971         0.625850022         0.343089998
     0.433660001         0.874149978         0.657970011
     0.566330016         0.374150008         0.530030012
     0.933659971         0.874149978         0.530030012
     0.066330001         0.374150008         0.657970011
     0.566330016         0.125850007         0.343089998
     0.433660001         0.625850022         0.471029997
     0.000400000         0.377759993         0.407609999
     0.999599993         0.877759993         0.406500012
     0.499599993         0.622240007         0.594550014
     0.500400007         0.122239999         0.593439996
     0.999599993         0.622240007         0.593439996
     0.000400000         0.122239999         0.594550014
     0.500400007         0.377759993         0.406500012
     0.499599993         0.877759993         0.407609999
     0.575179994         0.874220014         0.530539989
     0.424820006         0.374220014         0.657459974
     0.924820006         0.125780001         0.343600005
     0.075180002         0.625779986         0.470519990
     0.424820006         0.125780001         0.470519990
     0.575179994         0.625779986         0.343600005
     0.075180002         0.874220014         0.657459974
     0.924820006         0.374220014         0.530539989
