SYSTEM     = DJ
ISTART     = 0
NWRITE     = 2   
PREC       = Accurate
ENCUT      = 400
GGA        = PE
ADDGRID    = .TRUE.
NSW        = 0
ISIF       = 2
ISYM       = 2
IBRION     = -1
NELM       = 80 
EDIFF      = 1E-04
EDIFFG     = -0.01
ALGO       = Normal
LDIAG      = .TRUE.
LREAL      = Auto
ISMEAR     = 0
SIMGA      = 0.05
LORBIT     = 11
ICHARG     = 2
LWAVE      = .TRUE.
LCHARG     = .FALSE.
ICORELEVEL = 1
NCORE      = 4
